Ag4 O8
1.0
  -2.6728239999999999    2.6728239999999999    6.0284129999999996
   2.6728239999999999   -2.6728239999999999    6.0284129999999996
   2.6728239999999999    2.6728239999999999   -6.0284129999999996
Ag O
4 8
direct
   0.5000000000000000    0.5000000000000000    0.0000000000000000 Ag
   0.2500000000000000    0.7500000000000000    0.5000000000000000 Ag
   0.0000000000000000    0.0000000000000000    0.0000000000000000 Ag
   0.7500000000000000    0.2500000000000000    0.5000000000000000 Ag
   0.3422050000000000    0.3422050000000000    0.1844090000000000 O
   0.1577950000000000    0.1577950000000000    0.8155910000000000 O
   0.0922050000000000    0.4077949999999990    0.5000000000000000 O
   0.4077949999999990    0.9077949999999990    0.3155910000000000 O
   0.9077949999999990    0.5922050000000000    0.5000000000000000 O
   0.5922050000000000    0.0922050000000000    0.6844089999999990 O
   0.6577950000000000    0.8422050000000000    0.0000000000000000 O
   0.8422050000000000    0.6577950000000000    0.0000000000000000 O
