Se8 O24
1.0
  10.0949580000000001    0.0000000000000000    0.0000000000000000
   0.0000000000000000   10.0949580000000001    0.0000000000000000
   0.0000000000000000    0.0000000000000000    5.5522179999999999
Se O
8 24
direct
   0.5108960000000000    0.2788009999999990    0.5608339999999991 Se
   0.4891040000000000    0.7211989999999990    0.5608339999999991 Se
   0.2788009999999990    0.4891040000000000    0.4391660000000000 Se
   0.7211989999999990    0.5108960000000000    0.4391660000000000 Se
   0.7788010000000000    0.0108960000000000    0.0608340000000000 Se
   0.9891040000000000    0.7788010000000000    0.9391659999999999 Se
   0.0108960000000000    0.2211989999999990    0.9391659999999999 Se
   0.2211989999999990    0.9891040000000000    0.0608340000000000 Se
   0.5945349999999990    0.2596529999999990    0.8058660000000000 O
   0.4054649999999990    0.7403470000000000    0.8058660000000000 O
   0.2596529999999990    0.4054649999999990    0.1941340000000000 O
   0.7403470000000000    0.5945349999999990    0.1941340000000000 O
   0.7596529999999990    0.0945350000000000    0.3058659999999990 O
   0.9054650000000000    0.7596529999999990    0.6941339999999990 O
   0.0945350000000000    0.2403469999999990    0.6941339999999990 O
   0.2403469999999990    0.9054650000000000    0.3058659999999990 O
   0.1171990000000000    0.8986339999999990    0.8459340000000000 O
   0.1013660000000000    0.1171990000000000    0.1540659999999990 O
   0.8986339999999990    0.8828009999999999    0.1540659999999990 O
   0.8828009999999999    0.1013660000000000    0.8459340000000000 O
   0.6171989999999991    0.6013660000000000    0.6540659999999990 O
   0.3828010000000000    0.3986340000000000    0.6540659999999990 O
   0.3986340000000000    0.6171989999999991    0.3459339999999990 O
   0.6013660000000000    0.3828010000000000    0.3459339999999990 O
   0.3355150000000000    0.0528400000000000    0.8954289999999990 O
   0.9471600000000001    0.3355150000000000    0.1045710000000000 O
   0.0528400000000000    0.6644850000000000    0.1045710000000000 O
   0.6644850000000000    0.9471600000000001    0.8954289999999990 O
   0.8355150000000000    0.4471600000000001    0.6045710000000000 O
   0.1644850000000000    0.5528400000000000    0.6045710000000000 O
   0.5528400000000000    0.8355150000000000    0.3954290000000000 O
   0.4471600000000001    0.1644850000000000    0.3954290000000000 O
