Ag8 Se4 O8
1.0
  -5.1084639999999997   -5.1657770000000003    0.0000000000000000
  -5.1084639999999997    5.1657770000000003    0.0000000000000000
   5.1084639999999997    0.0000000000000000  -10.3106449999999992
Ag Se O
8 4 8
direct
   0.3836469999999990    0.1869460000000000    0.7521049999999990 Ag
   0.3684580000000000    0.5651590000000000    0.7521049999999990 Ag
   0.8130539999999991    0.6163529999999990    0.2478949999999990 Ag
   0.8663529999999990    0.5630539999999991    0.7478950000000000 Ag
   0.4348410000000000    0.6315419999999990    0.2478949999999990 Ag
   0.8815419999999990    0.1848410000000000    0.7478950000000000 Ag
   0.4369460000000000    0.1336470000000000    0.2521049999999990 Ag
   0.8151590000000000    0.1184580000000000    0.2521049999999990 Ag
   0.6250000000000000    0.8750000000000000    0.7500000000000000 Se
   0.1250000000000000    0.8750000000000000    0.7500000000000000 Se
   0.1250000000000000    0.3750000000000000    0.2500000000000000 Se
   0.1250000000000000    0.8750000000000000    0.2500000000000000 Se
   0.6610980000000000    0.6640000000000000    0.8340869999999990 O
   0.1729890000000000    0.1700870000000000    0.8340869999999990 O
   0.3360000000000000    0.3389020000000000    0.1659130000000000 O
   0.5889019999999990    0.0860000000000000    0.6659130000000000 O
   0.8299130000000000    0.8270109999999991    0.1659130000000000 O
   0.0770110000000000    0.5799130000000000    0.6659130000000000 O
   0.9140000000000000    0.4110979999999990    0.3340869999999990 O
   0.4200870000000000    0.9229889999999999    0.3340869999999990 O
