Cu4 Se3
1.0
  -1.8878940000000000   -3.2699289999999999    0.0000000000000000
   1.8878940000000000   -3.2699289999999999    0.0000000000000000
   0.0000000000000000    2.1799520000000001    9.6278819999999996
Cu Se
4 3
direct
   0.3687700000000000    0.3687700000000000    0.1063090000000000 Cu
   0.8936520000000000    0.8936520000000000    0.6809550000000000 Cu
   0.1312300000000000    0.1312300000000000    0.3936909999999990 Cu
   0.6063480000000000    0.6063480000000000    0.8190449999999990 Cu
   0.9816710000000000    0.9816710000000000    0.9450139999999990 Se
   0.5183289999999990    0.5183289999999990    0.5549860000000000 Se
   0.7500000000000000    0.7500000000000000    0.2500000000000000 Se
