Ag2 Se10
1.0
   9.6525149999999993    5.5916059999999996    0.0000000000000000
  -9.6525149999999993    5.5916059999999996    0.0000000000000000
   0.0000000000000000    3.5786889999999998    5.9110529999999999
Ag Se
2 10
direct
   0.3667760000000000    0.3341940000000000    0.7045589999999990 Ag
   0.3341940000000000    0.3667760000000000    0.2045590000000000 Ag
   0.1416150000000000    0.2800360000000000    0.0294800000000000 Se
   0.2800360000000000    0.1416150000000000    0.5294800000000001 Se
   0.1446029999999990    0.4968360000000000    0.8682869999999990 Se
   0.4968360000000000    0.1446029999999990    0.3682870000000000 Se
   0.7125079999999990    0.4068029999999990    0.1582930000000000 Se
   0.4068029999999990    0.7125079999999990    0.6582930000000000 Se
   0.6525139999999990    0.5180410000000000    0.8839870000000000 Se
   0.5180410000000000    0.6525139999999990    0.3839869999999990 Se
   0.3946179999999990    0.6316560000000000    0.1554960000000000 Se
   0.6316560000000000    0.3946179999999990    0.6554960000000000 Se
