Cu4 Se2
1.0
   4.0718160000000001    0.0000000000000000    0.0000000000000000
   0.0000000000000000    4.1375999999999999    0.0000000000000000
   0.0000000000000000    0.0000000000000000    6.0139659999999999
Cu Se
4 2
direct
   0.1251980000000000    0.5000000000000000    0.5592819999999999 Cu
   0.5090240000000000    0.0000000000000000    0.9961629999999991 Cu
   0.0090239999999990    0.5000000000000000    0.0038369999999990 Cu
   0.6251979999999990    0.0000000000000000    0.4407180000000000 Cu
   0.9897779999999990    0.0000000000000000    0.7563430000000000 Se
   0.4897780000000000    0.5000000000000000    0.2436569999999990 Se
