Se8 O20
1.0
   7.1100580000000004    0.0000000000000000    0.0000000000000000
   0.0000000000000000    4.8566019999999996    0.0000000000000000
   0.0000000000000000    0.2754300000000000   14.0166450000000005
Se O
8 20
direct
   0.7591510000000000    0.6316079999999999    0.6404200000000001 Se
   0.2591509999999990    0.3683920000000000    0.8595800000000001 Se
   0.2408489999999990    0.3683920000000000    0.3595800000000000 Se
   0.7408490000000000    0.6316079999999999    0.1404200000000000 Se
   0.7135929999999990    0.5014459999999999    0.8707960000000000 Se
   0.2135929999999990    0.4985540000000000    0.6292040000000000 Se
   0.2864069999999990    0.4985540000000000    0.1292039999999990 Se
   0.7864070000000000    0.5014459999999999    0.3707959999999990 Se
   0.7490570000000000    0.2994440000000000    0.6386100000000000 O
   0.2490570000000000    0.7005560000000000    0.8613900000000001 O
   0.2509429999999990    0.7005560000000000    0.3613900000000000 O
   0.7509429999999990    0.2994440000000000    0.1386100000000000 O
   0.7179860000000000    0.7298020000000000    0.7717600000000001 O
   0.2179859999999990    0.2701980000000000    0.7282400000000001 O
   0.2820140000000000    0.2701980000000000    0.2282400000000000 O
   0.7820140000000000    0.7298020000000000    0.2717600000000000 O
   0.8295690000000000    0.6989329999999990    0.4614870000000000 O
   0.3295690000000000    0.3010670000000000    0.0385130000000000 O
   0.1704310000000000    0.3010670000000000    0.5385130000000000 O
   0.6704310000000000    0.6989329999999990    0.9614870000000000 O
   0.6020449999999991    0.3004590000000000    0.3741310000000000 O
   0.1020450000000000    0.6995410000000000    0.1258689999999990 O
   0.3979550000000000    0.6995410000000000    0.6258690000000000 O
   0.8979549999999999    0.3004590000000000    0.8741310000000000 O
   0.9757469999999990    0.2804870000000000    0.3470519999999990 O
   0.4757470000000000    0.7195130000000000    0.1529480000000000 O
   0.0242530000000000    0.7195130000000000    0.6529480000000000 O
   0.5242530000000000    0.2804870000000000    0.8470519999999990 O
