Cu6 O1
1.0
  -2.3586149999999999   -4.0852409999999999    0.0000000000000000
  -3.2489669999999999    4.5992850000000001    0.0000000000000000
   0.0000000000000000    0.0000000000000000  -30.4673790000000011
Cu O
6 1
direct
   0.0000000000000000    0.0000000000000000    0.7501169999999990 Cu
   0.0000000000000000    0.0000000000000000    0.2498830000000000 Cu
   0.6022170000000000    0.7221449999999990    0.0000000000000000 Cu
   0.3977830000000000    0.2778549999999990    0.0000000000000000 Cu
   0.8800720000000000    0.2778549999999990    0.0000000000000000 Cu
   0.1199279999999990    0.7221449999999990    0.0000000000000000 Cu
   0.0000000000000000    0.0000000000000000    0.0000000000000000 O
