Cu2 Ag1 Se2 O10
1.0
   3.0806220000000000    4.6713680000000002    0.0000000000000000
  -3.0806220000000000    4.6713680000000002    0.0000000000000000
   0.0000000000000000    4.1988940000000001    7.0463789999999999
Cu Ag Se O
2 1 2 10
direct
   0.0000000000000000    0.5000000000000000    0.0000000000000000 Cu
   0.5000000000000000    0.0000000000000000    0.0000000000000000 Cu
   0.5000000000000000    0.5000000000000000    0.5000000000000000 Ag
   0.0823980000000000    0.0823980000000000    0.7065450000000000 Se
   0.9176019999999990    0.9176019999999990    0.2934549999999990 Se
   0.1785500000000000    0.1785500000000000    0.8307270000000000 O
   0.8214500000000000    0.8214500000000000    0.1692729999999990 O
   0.2167039999999990    0.2167039999999990    0.4771459999999990 O
   0.7832960000000000    0.7832960000000000    0.5228539999999990 O
   0.7291040000000000    0.1871010000000000    0.7599089999999999 O
   0.1871010000000000    0.7291040000000000    0.7599089999999999 O
   0.2708959999999990    0.8128989999999990    0.2400910000000000 O
   0.8128989999999990    0.2708959999999990    0.2400910000000000 O
   0.6780760000000000    0.6780760000000000    0.9508949999999990 O
   0.3219240000000000    0.3219240000000000    0.0491049999999990 O
