Cu18 Se10
1.0
   7.0209770000000002    0.0000000000000000    0.0000000000000000
   2.3331780000000002    7.7709789999999996    0.0000000000000000
   2.3481529999999999    1.4095730000000000    8.6647320000000008
Cu Se
18 10
direct
   0.0493049999999990    0.4513609999999990    0.1493900000000000 Cu
   0.0494280000000000    0.9495079999999990    0.1494359999999990 Cu
   0.9505720000000000    0.0504919999999990    0.8505640000000000 Cu
   0.1504420000000000    0.3502610000000000    0.4506920000000000 Cu
   0.9506950000000000    0.5486390000000000    0.8506100000000001 Cu
   0.4459600000000000    0.5515909999999991    0.3491360000000000 Cu
   0.3489569999999990    0.6508830000000000    0.0462130000000000 Cu
   0.2540980000000000    0.7495290000000000    0.7470850000000000 Cu
   0.6494740000000000    0.8498129999999990    0.9511250000000000 Cu
   0.1509039999999990    0.8490100000000000    0.4496719999999990 Cu
   0.5489940000000000    0.9504009999999991    0.6499260000000000 Cu
   0.4510059999999990    0.0495990000000000    0.3500740000000000 Cu
   0.3505260000000000    0.1501870000000000    0.0488749999999990 Cu
   0.8490960000000000    0.1509900000000000    0.5503279999999990 Cu
   0.6510429999999990    0.3491170000000000    0.9537869999999991 Cu
   0.5540400000000001    0.4484090000000000    0.6508640000000000 Cu
   0.8495579999999990    0.6497390000000000    0.5493080000000000 Cu
   0.7459020000000000    0.2504710000000000    0.2529150000000000 Cu
   0.8994230000000000    0.8501909999999990    0.7001290000000000 Se
   0.9046270000000000    0.3488300000000000    0.6997650000000000 Se
   0.0953730000000000    0.6511700000000000    0.3002350000000000 Se
   0.2992200000000000    0.9544710000000000    0.8987330000000000 Se
   0.1005770000000000    0.1498090000000000    0.2998710000000000 Se
   0.4968200000000000    0.2496719999999990    0.5030829999999999 Se
   0.2979970000000000    0.4471529999999990    0.8983869999999990 Se
   0.7020029999999990    0.5528470000000000    0.1016130000000000 Se
   0.5031800000000001    0.7503280000000000    0.4969170000000000 Se
   0.7007800000000001    0.0455290000000000    0.1012670000000000 Se
