Cu6 Se4
1.0
   6.3949189999999998    0.0000000000000000    0.0000000000000000
   0.0000000000000000    6.3949189999999998    0.0000000000000000
   0.0000000000000000    0.0000000000000000    4.3493199999999996
Cu Se
6 4
direct
   0.0000000000000000    0.0000000000000000    0.0000000000000000 Cu
   0.5000000000000000    0.5000000000000000    0.0000000000000000 Cu
   0.1458090000000000    0.6458090000000000    0.7549509999999990 Cu
   0.3541910000000000    0.1458090000000000    0.2450490000000000 Cu
   0.6458090000000000    0.8541909999999990    0.2450490000000000 Cu
   0.8541909999999990    0.3541910000000000    0.7549509999999990 Cu
   0.2709220000000000    0.7709220000000000    0.2616860000000000 Se
   0.2290779999999990    0.2709220000000000    0.7383139999999990 Se
   0.7709220000000000    0.7290780000000000    0.7383139999999990 Se
   0.7290780000000000    0.2290779999999990    0.2616860000000000 Se
