Cu13 Se8
1.0
   0.0000000000000000    5.7250490000000003    5.7250490000000003
   5.7250490000000003    0.0000000000000000    5.7250490000000003
   5.7250490000000003    5.7250490000000003    0.0000000000000000
Cu Se
13 8
direct
   0.7468250000000000    0.2531750000000000    0.2531750000000000 Cu
   0.2531750000000000    0.2531750000000000    0.7468250000000000 Cu
   0.2531750000000000    0.7468250000000000    0.2531750000000000 Cu
   0.7468250000000000    0.2531750000000000    0.7468250000000000 Cu
   0.7468250000000000    0.7468250000000000    0.2531750000000000 Cu
   0.2531750000000000    0.7468250000000000    0.7468250000000000 Cu
   0.9957929999999990    0.5042070000000000    0.5042070000000000 Cu
   0.5042070000000000    0.5042070000000000    0.9957929999999990 Cu
   0.5042070000000000    0.9957929999999990    0.5042070000000000 Cu
   0.9957929999999990    0.5042070000000000    0.9957929999999990 Cu
   0.5042070000000000    0.9957929999999990    0.9957929999999990 Cu
   0.9957929999999990    0.9957929999999990    0.5042070000000000 Cu
   0.0000000000000000    0.0000000000000000    0.0000000000000000 Cu
   0.1272520000000000    0.1272520000000000    0.1272520000000000 Se
   0.6182440000000000    0.1272520000000000    0.1272520000000000 Se
   0.1272520000000000    0.1272520000000000    0.6182440000000000 Se
   0.1272520000000000    0.6182440000000000    0.1272520000000000 Se
   0.6249230000000000    0.1252300000000000    0.6249230000000000 Se
   0.6249230000000000    0.6249230000000000    0.1252300000000000 Se
   0.1252300000000000    0.6249230000000000    0.6249230000000000 Se
   0.6249230000000000    0.6249230000000000    0.6249230000000000 Se
