Cu8 O7
1.0
   2.9420240000000000    5.7435939999999999    0.0000000000000000
  -2.9420240000000000    5.7435939999999999    0.0000000000000000
   0.0000000000000000    2.9566960000000000    5.1054979999999999
Cu O
8 7
direct
   0.0022359999999990    0.0022359999999990    0.0079400000000000 Cu
   0.5091479999999990    0.5091479999999990    0.9714670000000000 Cu
   0.5006520000000000    0.0075800000000000    0.9991730000000000 Cu
   0.0075800000000000    0.5006520000000000    0.9991730000000000 Cu
   0.7443409999999990    0.7443409999999990    0.4991319999999990 Cu
   0.2653109999999990    0.2653109999999990    0.4998740000000000 Cu
   0.2641670000000000    0.7583320000000000    0.5148520000000000 Cu
   0.7583320000000000    0.2641670000000000    0.5148520000000000 Cu
   0.8109320000000000    0.8109320000000000    0.1298949999999990 O
   0.3212310000000000    0.3212310000000000    0.1299070000000000 O
   0.1939300000000000    0.1939300000000000    0.8737400000000001 O
   0.0717650000000000    0.0717650000000000    0.6304860000000000 O
   0.6917909999999990    0.6917909999999990    0.8580960000000000 O
   0.9460830000000000    0.9460830000000000    0.3674940000000000 O
   0.4523649999999990    0.4523649999999990    0.4054430000000000 O
