Ag6 Se2
1.0
   3.0131500000000000   -5.2189300000000003    0.0000000000000000
   3.0131500000000000    5.2189300000000003    0.0000000000000000
   0.0000000000000000    0.0000000000000000    4.8515930000000003
Ag Se
6 2
direct
   0.1625039999999990    0.3250090000000000    0.2500000000000000 Ag
   0.6749910000000000    0.8374959999999990    0.2500000000000000 Ag
   0.1625039999999990    0.8374959999999990    0.2500000000000000 Ag
   0.8374959999999990    0.6749910000000000    0.7500000000000000 Ag
   0.3250090000000000    0.1625039999999990    0.7500000000000000 Ag
   0.8374959999999990    0.1625039999999990    0.7500000000000000 Ag
   0.3333330000000000    0.6666670000000000    0.7500000000000000 Se
   0.6666670000000000    0.3333330000000000    0.2500000000000000 Se
