Se4 O8
1.0
   4.6627330000000002    0.0000000000000000    0.0000000000000000
   0.0000000000000000    5.2163349999999999    0.0000000000000000
   0.0000000000000000    0.0000000000000000    7.9359180000000000
Se O
4 8
direct
   0.7472980000000000    0.5000000000000000    0.9956649999999990 Se
   0.8846170000000000    0.0000000000000000    0.3717979999999990 Se
   0.2527020000000000    0.5000000000000000    0.4956649999999990 Se
   0.1153830000000000    0.0000000000000000    0.8717980000000000 Se
   0.2409760000000000    0.0000000000000000    0.6774289999999999 O
   0.1554060000000000    0.2510719999999990    0.3410970000000000 O
   0.8445940000000000    0.2510719999999990    0.8410970000000000 O
   0.6008979999999990    0.5000000000000000    0.4627130000000000 O
   0.3991019999999990    0.5000000000000000    0.9627129999999990 O
   0.1554060000000000    0.7489279999999990    0.3410970000000000 O
   0.7590239999999990    0.0000000000000000    0.1774290000000000 O
   0.8445940000000000    0.7489279999999990    0.8410970000000000 O
