Cu4 O6
1.0
   0.0000000000000000    4.8638839999999997    5.9600520000000001
   1.8043559999999990    0.0000000000000000    5.9600520000000001
   1.8043559999999990    4.8638839999999997    0.0000000000000000
Cu O
4 6
direct
   0.4174630000000000    0.1766980000000000    0.8128090000000000 Cu
   0.0733019999999990    0.8325370000000000    0.6569710000000000 Cu
   0.4371910000000000    0.6569710000000000    0.8325370000000000 Cu
   0.5930290000000000    0.8128090000000000    0.1766980000000000 Cu
   0.8225969999999990    0.6774030000000000    0.6774030000000000 O
   0.9438620000000000    0.7189169999999990    0.0239610000000000 O
   0.5310830000000000    0.3061379999999990    0.9367400000000001 O
   0.5725970000000000    0.4274030000000000    0.4274030000000000 O
   0.2260390000000000    0.9367400000000001    0.3061379999999990 O
   0.3132600000000000    0.0239610000000000    0.7189169999999990 O
