Cu3 Ag1
1.0
  -1.8864139999999989    1.8864139999999989    3.7670260000000000
   1.8864139999999989   -1.8864139999999989    3.7670260000000000
   1.8864139999999989    1.8864139999999989   -3.7670260000000000
Cu Ag
3 1
direct
   0.7500000000000000    0.2500000000000000    0.5000000000000000 Cu
   0.2500000000000000    0.7500000000000000    0.5000000000000000 Cu
   0.5000000000000000    0.5000000000000000    0.0000000000000000 Cu
   0.0000000000000000    0.0000000000000000    0.0000000000000000 Ag
