Cu8 Se6 O20
1.0
   8.1097889999999992    0.0000000000000000    0.0000000000000000
   1.2206300000000001    8.1777630000000006    0.0000000000000000
   3.5012810000000001    1.3447009999999999    7.6270689999999997
Cu Se O
8 6 20
direct
   0.6783570000000000    0.5508300000000000    0.3899280000000000 Cu
   0.3216430000000000    0.4491700000000000    0.6100719999999999 Cu
   0.0926410000000000    0.5633450000000000    0.2600420000000000 Cu
   0.9073589999999990    0.4366549999999990    0.7399580000000000 Cu
   0.5138790000000000    0.3688770000000000    0.1768080000000000 Cu
   0.4861209999999990    0.6311230000000000    0.8231919999999990 Cu
   0.6075929999999991    0.1623649999999990    0.4860239999999990 Cu
   0.3924070000000000    0.8376349999999990    0.5139760000000000 Cu
   0.1638850000000000    0.1889710000000000    0.4704689999999990 Se
   0.8361160000000000    0.8110290000000000    0.5295310000000000 Se
   0.9438590000000000    0.2819129999999990    0.1229960000000000 Se
   0.0561409999999990    0.7180869999999990    0.8770040000000000 Se
   0.4039000000000000    0.7975350000000000    0.1604050000000000 Se
   0.5961000000000001    0.2024649999999990    0.8395950000000000 Se
   0.5288579999999991    0.3863169999999990    0.3981540000000000 O
   0.4711420000000000    0.6136830000000000    0.6018460000000000 O
   0.1445890000000000    0.2958130000000000    0.6360209999999999 O
   0.8554109999999990    0.7041870000000000    0.3639790000000000 O
   0.3723740000000000    0.0801660000000000    0.4236390000000000 O
   0.6276260000000000    0.9198339999999990    0.5763610000000000 O
   0.2391519999999990    0.3483830000000000    0.2867030000000000 O
   0.7608480000000000    0.6516170000000000    0.7132970000000000 O
   0.7790670000000000    0.3259950000000000    0.0364090000000000 O
   0.2209330000000000    0.6740050000000000    0.9635910000000000 O
   0.9089180000000000    0.4645289999999990    0.2163260000000000 O
   0.0910820000000000    0.5354710000000000    0.7836740000000000 O
   0.8521409999999990    0.1336810000000000    0.3027260000000000 O
   0.1478590000000000    0.8663190000000000    0.6972739999999999 O
   0.5197680000000000    0.6420629999999991    0.0405670000000000 O
   0.4802320000000000    0.3579370000000000    0.9594330000000000 O
   0.2214410000000000    0.6950390000000000    0.3300790000000000 O
   0.7785590000000000    0.3049610000000000    0.6699210000000000 O
   0.5426500000000001    0.7967689999999999    0.2695390000000000 O
   0.4573500000000000    0.2032310000000000    0.7304609999999990 O
