Ag8 Se4
1.0
   4.5822409999999998    0.0000000000000000    0.0000000000000000
   0.0000000000000000    7.3484429999999996    0.0000000000000000
   0.0000000000000000    0.0000000000000000    7.9376359999999995
Ag Se
8 4
direct
   0.0055439999999990    0.1028960000000000    0.2441460000000000 Ag
   0.9944560000000000    0.1028960000000000    0.7558539999999990 Ag
   0.5000000000000000    0.6090519999999990    0.0000000000000000 Ag
   0.4944559999999991    0.8971040000000000    0.2441460000000000 Ag
   0.0000000000000000    0.3909479999999990    0.0000000000000000 Ag
   0.0000000000000000    0.3850670000000000    0.5000000000000000 Ag
   0.5055440000000000    0.8971040000000000    0.7558539999999990 Ag
   0.5000000000000000    0.6149330000000000    0.5000000000000000 Ag
   0.5199810000000000    0.2944509999999990    0.2506490000000000 Se
   0.4800190000000000    0.2944509999999990    0.7493510000000000 Se
   0.0199810000000000    0.7055490000000000    0.7493510000000000 Se
   0.9800190000000000    0.7055490000000000    0.2506490000000000 Se
