Cu17 Se10
1.0
   2.0381909999999999    3.5396719999999999    0.0000000000000000
  -2.0381909999999999    3.5396719999999999    0.0000000000000000
   0.0000000000000000    2.4570240000000001   32.9672640000000001
Cu Se
17 10
direct
   0.3161110000000000    0.3161110000000000    0.0353730000000000 Cu
   0.6261580000000000    0.6261580000000000    0.1206670000000000 Cu
   0.9369350000000000    0.9369350000000000    0.2168920000000000 Cu
   0.2115260000000000    0.2115260000000000    0.3298649999999990 Cu
   0.5237570000000000    0.5237570000000000    0.4278369999999990 Cu
   0.5179220000000000    0.5179220000000000    0.2696840000000000 Cu
   0.8378949999999999    0.8378949999999999    0.5229480000000000 Cu
   0.8741400000000000    0.8741400000000000    0.3780330000000000 Cu
   0.1085860000000000    0.1085860000000000    0.6303409999999990 Cu
   0.4323220000000000    0.4323220000000000    0.7115779999999990 Cu
   0.4222680000000000    0.4222680000000000    0.5727300000000001 Cu
   0.7196739999999990    0.7196739999999990    0.8118019999999990 Cu
   0.0453470000000000    0.0453470000000000    0.8345370000000000 Cu
   0.0057750000000000    0.0057750000000000    0.9323220000000000 Cu
   0.3320510000000000    0.3320510000000000    0.9553480000000000 Cu
   0.3666790000000000    0.3666790000000000    0.8676760000000000 Cu
   0.6592239999999990    0.6592239999999990    0.9827870000000000 Cu
   0.9907570000000000    0.9907570000000000    0.0127710000000000 Se
   0.2959250000000000    0.2959250000000000    0.1065049999999990 Se
   0.8955600000000000    0.8955600000000000    0.3018900000000000 Se
   0.6086330000000000    0.6086330000000000    0.1989340000000000 Se
   0.5117140000000000    0.5117140000000000    0.5010350000000000 Se
   0.2008750000000000    0.2008750000000000    0.4044310000000000 Se
   0.7933359999999990    0.7933359999999990    0.6021989999999990 Se
   0.1004940000000000    0.1004940000000000    0.7017249999999990 Se
   0.6870060000000000    0.6870060000000000    0.9011509999999990 Se
   0.3923290000000000    0.3923290000000000    0.7899389999999999 Se
