Cu4 Ag4 O6
1.0
  -2.9971969999999999    2.9971969999999999    5.3715919999999997
   2.9971969999999999   -2.9971969999999999    5.3715919999999997
   2.9971969999999999    2.9971969999999999   -5.3715919999999997
Cu Ag O
4 4 6
direct
   0.3750000000000000    0.6250000000000000    0.2500000000000000 Cu
   0.8750000000000000    0.6250000000000000    0.2500000000000000 Cu
   0.3750000000000000    0.6250000000000000    0.7500000000000000 Cu
   0.3750000000000000    0.1250000000000000    0.7500000000000000 Cu
   0.3750000000000000    0.1250000000000000    0.2500000000000000 Ag
   0.8750000000000000    0.1250000000000000    0.2500000000000000 Ag
   0.8750000000000000    0.6250000000000000    0.7500000000000000 Ag
   0.8750000000000000    0.1250000000000000    0.7500000000000000 Ag
   0.2500000000000000    0.7500000000000000    0.5000000000000000 O
   0.5000000000000000    0.5000000000000000    0.0000000000000000 O
   0.7366330000000000    0.7366330000000000    0.0000000000000000 O
   0.4866330000000000    0.9866330000000000    0.5000000000000000 O
   0.2633669999999990    0.2633669999999990    0.0000000000000000 O
   0.0133669999999990    0.5133670000000000    0.5000000000000000 O
