Cu1 Ag1 O2
1.0
   1.4154679999999999    3.2857189999999998    0.0000000000000000
  -1.4154679999999999    3.2857189999999998    0.0000000000000000
   0.0000000000000000    2.3737400000000002    5.5393670000000004
Cu Ag O
1 1 2
direct
   0.5000000000000000    0.5000000000000000    0.5000000000000000 Cu
   0.0000000000000000    0.0000000000000000    0.0000000000000000 Ag
   0.1245510000000000    0.1245510000000000    0.2837719999999990 O
   0.8754489999999990    0.8754489999999990    0.7162280000000000 O
