Cu12 Se4 O32
1.0
   0.0000000000000000   -5.9172650000000004    0.0000000000000000
  -8.1020599999999998    0.0000000000000000    0.0000000000000000
   0.0000000000000000    0.0000000000000000  -13.4726140000000001
Cu Se O
12 4 32
direct
   0.9983270000000000    0.7262949999999990    0.8819319999999991 Cu
   0.0016730000000000    0.2737050000000000    0.1180679999999990 Cu
   0.0016730000000000    0.7737050000000000    0.3819320000000000 Cu
   0.4983269999999990    0.2737050000000000    0.1180679999999990 Cu
   0.9983270000000000    0.2262950000000000    0.6180680000000000 Cu
   0.5016729999999990    0.7262949999999990    0.8819319999999991 Cu
   0.5016729999999990    0.2262950000000000    0.6180680000000000 Cu
   0.4983269999999990    0.7737050000000000    0.3819320000000000 Cu
   0.7500000000000000    0.0007289999999990    0.9982050000000000 Cu
   0.2500000000000000    0.9992709999999991    0.0017950000000000 Cu
   0.2500000000000000    0.4992709999999990    0.4982049999999991 Cu
   0.7500000000000000    0.5007290000000000    0.5017950000000000 Cu
   0.7500000000000000    0.8865560000000000    0.6406630000000000 Se
   0.2500000000000000    0.1134439999999990    0.3593369999999990 Se
   0.2500000000000000    0.6134440000000000    0.1406629999999990 Se
   0.7500000000000000    0.3865559999999990    0.8593369999999990 Se
   0.9922249999999990    0.0015270000000000    0.6545100000000000 O
   0.0077750000000000    0.9984729999999991    0.3454900000000000 O
   0.0077750000000000    0.4984730000000000    0.1545100000000000 O
   0.4922249999999990    0.9984729999999991    0.3454900000000000 O
   0.9922249999999990    0.5015269999999999    0.8454900000000001 O
   0.5077750000000000    0.0015270000000000    0.6545100000000000 O
   0.5077750000000000    0.5015269999999999    0.8454900000000001 O
   0.4922249999999990    0.4984730000000000    0.1545100000000000 O
   0.7500000000000000    0.7919910000000000    0.5302559999999999 O
   0.2500000000000000    0.2080090000000000    0.4697440000000000 O
   0.2500000000000000    0.7080090000000000    0.0302559999999990 O
   0.7500000000000000    0.2919910000000000    0.9697439999999991 O
   0.7500000000000000    0.7505240000000000    0.7314760000000000 O
   0.2500000000000000    0.2494759999999990    0.2685240000000000 O
   0.2500000000000000    0.7494759999999990    0.2314760000000000 O
   0.7500000000000000    0.2505239999999990    0.7685240000000000 O
   0.7500000000000000    0.7485700000000001    0.3083970000000000 O
   0.2500000000000000    0.2514300000000000    0.6916030000000000 O
   0.2500000000000000    0.7514300000000000    0.8083969999999990 O
   0.7500000000000000    0.2485700000000000    0.1916030000000000 O
   0.7500000000000000    0.7100930000000000    0.9586810000000000 O
   0.2500000000000000    0.2899069999999990    0.0413190000000000 O
   0.2500000000000000    0.7899069999999990    0.4586810000000000 O
   0.7500000000000000    0.2100930000000000    0.5413190000000000 O
   0.4944730000000000    0.9515079999999990    0.9156749999999990 O
   0.5055269999999999    0.0484920000000000    0.0843250000000000 O
   0.5055269999999999    0.5484920000000000    0.4156749999999990 O
   0.9944729999999991    0.0484920000000000    0.0843250000000000 O
   0.4944730000000000    0.4515079999999990    0.5843250000000000 O
   0.0055270000000000    0.9515079999999990    0.9156749999999990 O
   0.0055270000000000    0.4515079999999990    0.5843250000000000 O
   0.9944729999999991    0.5484920000000000    0.4156749999999990 O
