Cu8 O12
1.0
   7.1030530000000001    0.0000000000000000    0.0000000000000000
   0.0000000000000000    5.3438330000000001    0.0000000000000000
   0.0000000000000000    4.3882110000000001    5.7604730000000002
Cu O
8 12
direct
   0.0128770000000000    0.1206179999999990    0.1368850000000000 Cu
   0.4871230000000000    0.1206179999999990    0.6368849999999990 Cu
   0.2555880000000000    0.5068560000000000    0.2355890000000000 Cu
   0.7555879999999990    0.4931439999999990    0.2644110000000000 Cu
   0.2444120000000000    0.5068560000000000    0.7355889999999990 Cu
   0.7444120000000000    0.4931439999999990    0.7644110000000000 Cu
   0.5128770000000000    0.8793820000000000    0.3631149999999990 Cu
   0.9871230000000000    0.8793820000000000    0.8631150000000000 Cu
   0.0771439999999990    0.9973350000000000    0.4407930000000000 O
   0.8186900000000000    0.4882579999999990    0.0160490000000000 O
   0.4228559999999990    0.9973350000000000    0.9407930000000000 O
   0.5064069999999991    0.2807110000000000    0.3121440000000000 O
   0.0064069999999990    0.7192890000000000    0.1878560000000000 O
   0.6813100000000001    0.4882579999999990    0.5160490000000000 O
   0.3186900000000000    0.5117420000000000    0.4839509999999990 O
   0.9935929999999999    0.2807110000000000    0.8121440000000000 O
   0.4935930000000000    0.7192890000000000    0.6878560000000000 O
   0.5771440000000000    0.0026650000000000    0.0592069999999990 O
   0.1813100000000000    0.5117420000000000    0.9839509999999991 O
   0.9228560000000000    0.0026650000000000    0.5592070000000000 O
