Cu9 Se8
1.0
   3.8697600000000003    0.0000000000000000    0.0000000000000000
  -1.9331820000000000   -3.3950399999999998    0.0000000000000000
   0.0988209999999990    2.1301320000000001  -26.1827429999999985
Cu Se
9 8
direct
   0.2722950000000000    0.6086490000000000    0.0319930000000000 Cu
   0.7252860000000000    0.1284480000000000    0.1531950000000000 Cu
   0.3701230000000000    0.4117559999999990    0.2185430000000000 Cu
   0.7512280000000000    0.9092089999999990    0.3433390000000000 Cu
   0.1251320000000000    0.4129400000000000    0.4654530000000000 Cu
   0.4999130000000000    0.9137810000000000    0.5901109999999991 Cu
   0.8742380000000000    0.4141829999999990    0.7147530000000000 Cu
   0.2482859999999990    0.9139280000000000    0.8382820000000000 Cu
   0.5967970000000000    0.4040320000000000    0.9578859999999991 Cu
   0.9383980000000000    0.0064249999999990    0.9956950000000000 Se
   0.3828630000000000    0.5112150000000000    0.1219560000000000 Se
   0.7125119999999990    0.0280640000000000    0.2504550000000000 Se
   0.4664689999999990    0.0305469999999990    0.4981950000000000 Se
   0.0916159999999990    0.5296719999999990    0.3736239999999990 Se
   0.8412219999999990    0.5316959999999999    0.6227130000000000 Se
   0.2153429999999990    0.0331030000000000    0.7464700000000001 Se
   0.5879050000000000    0.5338510000000000    0.8682100000000000 Se
