Cu1 Ag2 O2
1.0
  -2.0271059999999999    2.0271059999999999    4.2731639999999986
   2.0271059999999999   -2.0271059999999999    4.2731639999999986
   2.0271059999999999    2.0271059999999999   -4.2731639999999986
Cu Ag O
1 2 2
direct
   0.0000000000000000    0.0000000000000000    0.0000000000000000 Cu
   0.7500000000000000    0.2500000000000000    0.5000000000000000 Ag
   0.2500000000000000    0.7500000000000000    0.5000000000000000 Ag
   0.5000000000000000    0.0000000000000000    0.5000000000000000 O
   0.0000000000000000    0.5000000000000000    0.5000000000000000 O
