Ag8 Se4
1.0
   4.9704030000000001    0.0000000000000000    0.0000000000000000
   0.0000000000000000    7.1468290000000003    0.0000000000000000
   0.0000000000000000    0.0000000000000000    7.7743079999999996
Ag Se
8 4
direct
   0.2500000000000000    0.2579490000000000    0.9737859999999990 Ag
   0.7500000000000000    0.7420510000000000    0.0262139999999990 Ag
   0.2500000000000000    0.6138479999999999    0.2109059999999990 Ag
   0.7500000000000000    0.7579490000000000    0.5262140000000000 Ag
   0.7500000000000000    0.1138479999999990    0.2890939999999990 Ag
   0.7500000000000000    0.3861520000000000    0.7890940000000000 Ag
   0.2500000000000000    0.8861519999999991    0.7109059999999990 Ag
   0.2500000000000000    0.2420510000000000    0.4737869999999990 Ag
   0.7500000000000000    0.5151380000000000    0.2835040000000000 Se
   0.7500000000000000    0.9848619999999991    0.7835040000000000 Se
   0.2500000000000000    0.0151379999999990    0.2164960000000000 Se
   0.2500000000000000    0.4848619999999990    0.7164960000000000 Se
