Cu9 Se5
1.0
   5.8057590000000001    0.0000000000000000    0.0000000000000000
   2.8860589999999999    6.5045400000000004    0.0000000000000000
   2.8991940000000000    0.1580929999999990    6.5126609999999996
Cu Se
9 5
direct
   0.4702579999999990    0.8935120000000000    0.6942590000000000 Cu
   0.8533879999999990    0.7109190000000000    0.1089380000000000 Cu
   0.2639010000000000    0.5032850000000000    0.4819100000000001 Cu
   0.0668960000000000    0.7951319999999999    0.7295480000000000 Cu
   0.3853310000000000    0.7926070000000000    0.0751790000000000 Cu
   0.6375810000000000    0.3009770000000000    0.9010870000000000 Cu
   0.0488889999999990    0.0972779999999990    0.3119679999999990 Cu
   0.8647800000000001    0.4017200000000000    0.5319360000000000 Cu
   0.5924680000000000    0.1904990000000000    0.2716960000000000 Cu
   0.9949990000000000    0.0060139999999990    0.9908239999999990 Se
   0.4097300000000000    0.8031779999999999    0.4003480000000000 Se
   0.7897609999999990    0.5963360000000000    0.8073009999999990 Se
   0.1904590000000000    0.4022480000000000    0.1885069999999990 Se
   0.5816410000000000    0.2009210000000000    0.6097870000000000 Se
