Cu9 O13
1.0
   1.4727129999999999    4.9191789999999997    0.0000000000000000
  -1.4727129999999999    4.9191789999999997    0.0000000000000000
   0.0000000000000000    2.5345710000000001   16.0211080000000017
Cu O
9 13
direct
   0.5000000000000000    0.5000000000000000    0.5000000000000000 Cu
   0.3525280000000000    0.3525280000000000    0.0418770000000000 Cu
   0.6474719999999990    0.6474719999999990    0.9581229999999999 Cu
   0.2511730000000000    0.2511730000000000    0.4175270000000000 Cu
   0.7488270000000000    0.7488270000000000    0.5824730000000000 Cu
   0.0606380000000000    0.0606380000000000    0.1239280000000000 Cu
   0.9393619999999990    0.9393619999999990    0.8760720000000000 Cu
   0.0060789999999990    0.0060789999999990    0.3298570000000000 Cu
   0.9939209999999991    0.9939209999999991    0.6701429999999990 Cu
   0.0000000000000000    0.0000000000000000    0.0000000000000000 O
   0.1165500000000000    0.1165500000000000    0.2261190000000000 O
   0.8834500000000001    0.8834500000000001    0.7738809999999990 O
   0.6986300000000001    0.6986300000000001    0.0680419999999990 O
   0.3013700000000000    0.3013700000000000    0.9319580000000000 O
   0.4317169999999990    0.4317169999999990    0.1380200000000000 O
   0.5682830000000000    0.5682830000000000    0.8619800000000001 O
   0.3829550000000000    0.3829550000000000    0.3233390000000000 O
   0.6170450000000000    0.6170450000000000    0.6766610000000000 O
   0.6074030000000000    0.6074030000000000    0.3886610000000000 O
   0.3925970000000000    0.3925970000000000    0.6113390000000000 O
   0.8653869999999990    0.8653869999999990    0.4739140000000000 O
   0.1346129999999990    0.1346129999999990    0.5260859999999991 O
