Cu64 O1
1.0
   5.1116510000000002   -7.2869669999999998    0.0000000000000000
   5.1116510000000002    7.2869669999999998    0.0000000000000000
   0.0000000000000000    0.0000000000000000   10.2953229999999998
Cu O
64 1
direct
   0.3116560000000000    0.6883440000000000    0.1261270000000000 Cu
   0.3116560000000000    0.6883440000000000    0.8738730000000000 Cu
   0.0633050000000000    0.1892889999999990    0.2530030000000000 Cu
   0.8107110000000000    0.9366949999999991    0.7469969999999990 Cu
   0.8107110000000000    0.9366949999999991    0.2530030000000000 Cu
   0.0633050000000000    0.1892889999999990    0.7469969999999990 Cu
   0.8098550000000000    0.1901449999999990    0.1265620000000000 Cu
   0.8098550000000000    0.1901449999999990    0.8734379999999990 Cu
   0.0623000000000000    0.4365710000000000    0.3762600000000000 Cu
   0.5634290000000000    0.9377000000000001    0.6237400000000001 Cu
   0.5634290000000000    0.9377000000000001    0.3762600000000000 Cu
   0.0623000000000000    0.4365710000000000    0.6237400000000001 Cu
   0.8113790000000000    0.4371160000000000    0.2511330000000000 Cu
   0.5628839999999991    0.1886209999999990    0.7488669999999999 Cu
   0.5628839999999991    0.1886209999999990    0.2511330000000000 Cu
   0.8113790000000000    0.4371160000000000    0.7488669999999999 Cu
   0.0624920000000000    0.6860330000000000    0.5000000000000000 Cu
   0.3139670000000000    0.9375080000000000    0.5000000000000000 Cu
   0.5623020000000000    0.4376980000000000    0.3753729999999990 Cu
   0.5623020000000000    0.4376980000000000    0.6246269999999990 Cu
   0.3134500000000000    0.6865500000000001    0.3755719999999990 Cu
   0.3134500000000000    0.6865500000000001    0.6244280000000000 Cu
   0.0625790000000000    0.4429710000000000    0.1284500000000000 Cu
   0.5570290000000000    0.9374209999999999    0.8715500000000000 Cu
   0.5570290000000000    0.9374209999999999    0.1284500000000000 Cu
   0.0625790000000000    0.4429710000000000    0.8715500000000000 Cu
   0.0741360000000000    0.9258639999999990    0.1500179999999990 Cu
   0.0741360000000000    0.9258639999999990    0.8499820000000000 Cu
   0.5631159999999999    0.4368840000000000    0.1258490000000000 Cu
   0.5631159999999999    0.4368840000000000    0.8741510000000000 Cu
   0.8126129999999990    0.1873870000000000    0.3750170000000000 Cu
   0.8126129999999990    0.1873870000000000    0.6249830000000000 Cu
   0.8119670000000000    0.4373090000000000    0.5000000000000000 Cu
   0.5626909999999991    0.1880329999999990    0.5000000000000000 Cu
   0.8124260000000000    0.4380000000000000    0.0000000000000000 Cu
   0.5620000000000001    0.1875740000000000    0.0000000000000000 Cu
   0.8127409999999990    0.6877380000000000    0.3752280000000000 Cu
   0.3122620000000000    0.1872589999999990    0.6247720000000000 Cu
   0.3122620000000000    0.1872589999999990    0.3752280000000000 Cu
   0.8127409999999990    0.6877380000000000    0.6247720000000000 Cu
   0.0713589999999990    0.2204310000000000    0.0000000000000000 Cu
   0.7795690000000000    0.9286409999999991    0.0000000000000000 Cu
   0.3169929999999990    0.4427700000000001    0.0000000000000000 Cu
   0.5572300000000000    0.6830069999999990    0.0000000000000000 Cu
   0.8102140000000000    0.6843960000000000    0.1265389999999990 Cu
   0.3156040000000000    0.1897859999999990    0.8734609999999990 Cu
   0.3156040000000000    0.1897859999999990    0.1265389999999990 Cu
   0.8102140000000000    0.6843960000000000    0.8734609999999990 Cu
   0.0624679999999990    0.1880870000000000    0.5000000000000000 Cu
   0.8119130000000000    0.9375319999999990    0.5000000000000000 Cu
   0.0633260000000000    0.6861840000000000    0.0000000000000000 Cu
   0.3138160000000000    0.9366740000000000    0.0000000000000000 Cu
   0.0626700000000000    0.6819839999999990    0.2546520000000000 Cu
   0.3180159999999990    0.9373300000000001    0.7453480000000000 Cu
   0.3180159999999990    0.9373300000000001    0.2546520000000000 Cu
   0.0626700000000000    0.6819839999999990    0.7453480000000000 Cu
   0.3126780000000000    0.4380079999999990    0.2502240000000000 Cu
   0.5619919999999990    0.6873220000000000    0.7497760000000000 Cu
   0.5619919999999990    0.6873220000000000    0.2502240000000000 Cu
   0.3126780000000000    0.4380079999999990    0.7497760000000000 Cu
   0.0627390000000000    0.9372610000000000    0.3810560000000000 Cu
   0.0627390000000000    0.9372610000000000    0.6189439999999991 Cu
   0.3132020000000000    0.4372890000000000    0.5000000000000000 Cu
   0.5627110000000000    0.6867980000000000    0.5000000000000000 Cu
   0.0025510000000000    0.9974489999999990    0.0000000000000000 O
