Cu2 Ag2 Se2
1.0
   4.1496870000000001    0.0000000000000000    0.0000000000000000
   0.0000000000000000    4.1446839999999998    0.0000000000000000
   0.0000000000000000    0.0000000000000000    6.2349030000000001
Cu Ag Se
2 2 2
direct
   0.7500000000000000    0.2500000000000000    0.0015030000000000 Cu
   0.2500000000000000    0.7500000000000000    0.9984970000000000 Cu
   0.7500000000000000    0.7500000000000000    0.6868639999999990 Ag
   0.2500000000000000    0.2500000000000000    0.3131359999999990 Ag
   0.7500000000000000    0.7500000000000000    0.2479410000000000 Se
   0.2500000000000000    0.2500000000000000    0.7520589999999990 Se
