Cu2 Ag1 O4
1.0
   3.7367420000000000    0.0000000000000000    0.0000000000000000
   0.7563280000000000    4.7281909999999998    0.0000000000000000
   0.1547400000000000    0.6587379999999990    5.2207540000000003
Cu Ag O
2 1 4
direct
   0.0000000000000000    0.5000000000000000    0.5000000000000000 Cu
   0.5000000000000000    0.0000000000000000    0.5000000000000000 Cu
   0.0000000000000000    0.0000000000000000    0.0000000000000000 Ag
   0.3025970000000000    0.2439079999999990    0.7277570000000000 O
   0.8324459999999990    0.7705630000000000    0.7189909999999990 O
   0.6974030000000000    0.7560920000000000    0.2722430000000000 O
   0.1675539999999990    0.2294370000000000    0.2810090000000000 O
