Cu2 Se4 O10
1.0
   2.6513149999999999    6.2331490000000001    0.0000000000000000
  -2.6513149999999999    6.2331490000000001    0.0000000000000000
   0.0000000000000000    2.7903690000000001    7.5477429999999996
Cu Se O
2 4 10
direct
   0.5000000000000000    0.5000000000000000    0.0000000000000000 Cu
   0.5000000000000000    0.5000000000000000    0.5000000000000000 Cu
   0.2285090000000000    0.0460160000000000    0.6764559999999999 Se
   0.9539839999999991    0.7714909999999990    0.8235439999999991 Se
   0.7714909999999990    0.9539839999999991    0.3235440000000000 Se
   0.0460160000000000    0.2285090000000000    0.1764560000000000 Se
   0.3993089999999990    0.8457110000000000    0.5123270000000000 O
   0.1542889999999990    0.6006910000000000    0.9876729999999990 O
   0.6006910000000000    0.1542889999999990    0.4876729999999990 O
   0.8457110000000000    0.3993089999999990    0.0123270000000000 O
   0.4068910000000000    0.8391860000000000    0.8512419999999991 O
   0.1608139999999990    0.5931090000000000    0.6487579999999999 O
   0.0855720000000000    0.9144279999999990    0.2500000000000000 O
   0.9144279999999990    0.0855720000000000    0.7500000000000000 O
   0.8391860000000000    0.4068910000000000    0.3512420000000000 O
   0.5931090000000000    0.1608139999999990    0.1487580000000000 O
