Cu8 Se4 O16
1.0
   6.0284870000000002    0.0000000000000000    0.0000000000000000
   0.0000000000000000    7.1210560000000003    0.0000000000000000
   0.0000000000000000    6.8031050000000004    8.5334930000000000
Cu Se O
8 4 16
direct
   0.2969640000000000    0.5044710000000000    0.2421170000000000 Cu
   0.7969640000000000    0.4955290000000000    0.2578830000000000 Cu
   0.7030360000000000    0.4955290000000000    0.7578830000000000 Cu
   0.5000000000000000    0.0000000000000000    0.5000000000000000 Cu
   0.0000000000000000    0.0000000000000000    0.0000000000000000 Cu
   0.0000000000000000    0.5000000000000000    0.0000000000000000 Cu
   0.5000000000000000    0.5000000000000000    0.5000000000000000 Cu
   0.2030360000000000    0.5044710000000000    0.7421169999999990 Cu
   0.0811730000000000    0.1646439999999990    0.5994780000000000 Se
   0.9188269999999999    0.8353560000000000    0.4005220000000000 Se
   0.5811729999999991    0.8353560000000000    0.9005219999999990 Se
   0.4188270000000000    0.1646439999999990    0.0994780000000000 Se
   0.2792130000000000    0.9504670000000000    0.1016570000000000 O
   0.7207870000000000    0.0495330000000000    0.8983430000000000 O
   0.0639190000000000    0.4129430000000000    0.3981619999999990 O
   0.4645959999999990    0.6559250000000000    0.5975300000000000 O
   0.2116610000000000    0.2613570000000000    0.1586230000000000 O
   0.7116610000000000    0.7386429999999991    0.3413770000000000 O
   0.0354040000000000    0.6559250000000000    0.0975300000000000 O
   0.2207869999999990    0.9504670000000000    0.6016570000000000 O
   0.9360809999999991    0.5870569999999991    0.6018380000000000 O
   0.9645960000000000    0.3440749999999990    0.9024700000000001 O
   0.7792129999999990    0.0495330000000000    0.3983430000000000 O
   0.2883390000000000    0.2613570000000000    0.6586230000000000 O
   0.5639189999999999    0.5870569999999991    0.1018380000000000 O
   0.7883390000000000    0.7386429999999991    0.8413769999999990 O
   0.4360810000000000    0.4129430000000000    0.8981619999999990 O
   0.5354040000000000    0.3440749999999990    0.4024700000000000 O
