Se4 O16
1.0
   4.8074139999999996    0.0000000000000000    0.0000000000000000
   0.0000000000000000    8.3119770000000006    0.0000000000000000
   0.0000000000000000    0.0000000000000000    8.7968879999999992
Se O
4 16
direct
   0.8161700000000001    0.0342250000000000    0.1147300000000000 Se
   0.3161700000000000    0.4657750000000000    0.8852700000000001 Se
   0.6838300000000000    0.9657749999999991    0.6147300000000000 Se
   0.1838300000000000    0.5342249999999999    0.3852700000000001 Se
   0.9568920000000000    0.1230619999999990    0.2668109999999990 O
   0.4568919999999990    0.3769380000000000    0.7331890000000000 O
   0.5431079999999990    0.8769380000000000    0.7668110000000000 O
   0.0431080000000000    0.6230620000000000    0.2331889999999990 O
   0.5574930000000000    0.1446579999999990    0.0378080000000000 O
   0.0574929999999990    0.3553420000000000    0.9621919999999990 O
   0.9425070000000000    0.8553419999999990    0.5378080000000000 O
   0.4425070000000000    0.6446580000000000    0.4621920000000000 O
   0.0636019999999990    0.9960420000000000    0.9837760000000000 O
   0.5636019999999990    0.5039580000000000    0.0162240000000000 O
   0.4363979999999990    0.0039580000000000    0.4837760000000000 O
   0.9363980000000000    0.4960420000000000    0.5162240000000000 O
   0.6596369999999990    0.8610869999999990    0.1668069999999990 O
   0.1596370000000000    0.6389130000000000    0.8331930000000000 O
   0.8403630000000000    0.1389129999999990    0.6668069999999990 O
   0.3403629999999990    0.3610870000000000    0.3331929999999990 O
