Cu6 O8
1.0
   0.0000000000000000    4.5095669999999997    4.5095669999999997
   4.5095669999999997    0.0000000000000000    4.5095669999999997
   4.5095669999999997    4.5095669999999997    0.0000000000000000
Cu O
6 8
direct
   0.5000000000000000    0.0000000000000000    0.5000000000000000 Cu
   0.5000000000000000    0.0000000000000000    0.0000000000000000 Cu
   0.0000000000000000    0.0000000000000000    0.5000000000000000 Cu
   0.0000000000000000    0.5000000000000000    0.0000000000000000 Cu
   0.0000000000000000    0.5000000000000000    0.5000000000000000 Cu
   0.5000000000000000    0.5000000000000000    0.0000000000000000 Cu
   0.8575689999999990    0.4272930000000000    0.8575689999999990 O
   0.1424310000000000    0.1424310000000000    0.1424310000000000 O
   0.8575689999999990    0.8575689999999990    0.8575689999999990 O
   0.5727070000000000    0.1424310000000000    0.1424310000000000 O
   0.8575689999999990    0.8575689999999990    0.4272930000000000 O
   0.4272930000000000    0.8575689999999990    0.8575689999999990 O
   0.1424310000000000    0.1424310000000000    0.5727070000000000 O
   0.1424310000000000    0.5727070000000000    0.1424310000000000 O
