Ag4 Se2 O8
1.0
   0.0000000000000000    5.7182649999999997    6.4093229999999997
   3.0011709999999998    0.0000000000000000    6.4093229999999997
   3.0011709999999998    5.7182649999999997    0.0000000000000000
Ag Se O
4 2 8
direct
   0.1776859999999990    0.5788880000000000    0.1783269999999990 Ag
   0.5769930000000000    0.1803020000000000    0.5670280000000000 Ag
   0.8330200000000001    0.4207849999999990    0.8148069999999999 Ag
   0.4260609999999990    0.8209700000000001    0.4204420000000000 Ag
   0.8793679999999990    0.8657000000000000    0.8756689999999990 Se
   0.1275270000000000    0.1289070000000000    0.1178330000000000 Se
   0.7111419999999991    0.1870359999999990    0.8635530000000000 O
   0.7295469999999999    0.8627079999999990    0.2001049999999990 O
   0.8791390000000000    0.7218709999999990    0.6966160000000000 O
   0.1915180000000000    0.7134570000000000    0.7325330000000000 O
   0.2937659999999990    0.8066860000000000    0.1393350000000000 O
   0.2728089999999990    0.1232419999999990    0.7976010000000000 O
   0.8018310000000000    0.2911260000000000    0.2755809999999990 O
   0.1319340000000000    0.2639880000000000    0.3024080000000000 O
