Se8 O40
1.0
  -9.4875240000000005    0.0000000000000000    0.0000000000000000
   0.0000000000000000    0.0000000000000000   -8.0936170000000001
   0.0000000000000000  -10.0861710000000002    0.0000000000000000
Se O
8 40
direct
   0.8966470000000000    0.9642020000000000    0.7334500000000000 Se
   0.1033530000000000    0.0357979999999990    0.2665500000000000 Se
   0.6033530000000000    0.4642020000000000    0.2665500000000000 Se
   0.1033530000000000    0.5357980000000000    0.2334500000000000 Se
   0.3966469999999990    0.5357980000000000    0.7334500000000000 Se
   0.8966470000000000    0.4642020000000000    0.7665500000000001 Se
   0.3966469999999990    0.0357979999999990    0.7665500000000001 Se
   0.6033530000000000    0.9642020000000000    0.2334500000000000 Se
   0.9350090000000000    0.6452669999999990    0.8436640000000000 O
   0.0649910000000000    0.3547329999999990    0.1563360000000000 O
   0.5649910000000000    0.1452670000000000    0.1563360000000000 O
   0.0649910000000000    0.8547330000000000    0.3436639999999990 O
   0.4350090000000000    0.8547330000000000    0.8436640000000000 O
   0.9350090000000000    0.1452670000000000    0.6563359999999990 O
   0.4350090000000000    0.3547329999999990    0.6563359999999990 O
   0.5649910000000000    0.6452669999999990    0.3436639999999990 O
   0.6993710000000000    0.6983680000000000    0.0173410000000000 O
   0.3006290000000000    0.3016320000000000    0.9826589999999999 O
   0.8006289999999990    0.1983680000000000    0.9826589999999999 O
   0.3006290000000000    0.8016320000000000    0.5173409999999991 O
   0.1993710000000000    0.8016320000000000    0.0173410000000000 O
   0.6993710000000000    0.1983680000000000    0.4826590000000000 O
   0.1993710000000000    0.3016320000000000    0.4826590000000000 O
   0.8006289999999990    0.6983680000000000    0.5173409999999991 O
   0.5427270000000000    0.6552000000000000    0.7172790000000000 O
   0.4572730000000000    0.3448000000000000    0.2827210000000000 O
   0.9572729999999990    0.1552000000000000    0.2827210000000000 O
   0.4572730000000000    0.8448000000000000    0.2172790000000000 O
   0.0427270000000000    0.8448000000000000    0.7172790000000000 O
   0.5427270000000000    0.1552000000000000    0.7827210000000000 O
   0.0427270000000000    0.3448000000000000    0.7827210000000000 O
   0.9572729999999990    0.6552000000000000    0.2172790000000000 O
   0.7565879999999990    0.8828239999999991    0.6538240000000000 O
   0.2434120000000000    0.1171759999999990    0.3461760000000000 O
   0.7434120000000000    0.3828240000000000    0.3461760000000000 O
   0.2434120000000000    0.6171759999999999    0.1538240000000000 O
   0.2565880000000000    0.6171759999999999    0.6538240000000000 O
   0.7565879999999990    0.3828240000000000    0.8461759999999990 O
   0.2565880000000000    0.1171759999999990    0.8461759999999990 O
   0.7434120000000000    0.8828239999999991    0.1538240000000000 O
   0.8588789999999999    0.9891089999999991    0.8974470000000000 O
   0.1411210000000000    0.0108910000000000    0.1025529999999990 O
   0.6411209999999991    0.4891089999999990    0.1025529999999990 O
   0.1411210000000000    0.5108910000000000    0.3974470000000000 O
   0.3588790000000000    0.5108910000000000    0.8974470000000000 O
   0.8588789999999999    0.4891089999999990    0.6025530000000000 O
   0.3588790000000000    0.0108910000000000    0.6025530000000000 O
   0.6411209999999991    0.9891089999999991    0.3974470000000000 O
