Cu4 Se4 O20
1.0
   6.2246750000000004    0.0000000000000000    0.0000000000000000
   0.0000000000000000    7.9622120000000001    0.0000000000000000
  -6.0801010000000000    0.0000000000000000    8.8179680000000005
Cu Se O
4 4 20
direct
   0.1759679999999990    0.1445280000000000    0.0302430000000000 Cu
   0.1759679999999990    0.3554720000000000    0.5302430000000000 Cu
   0.8240320000000000    0.8554720000000000    0.9697570000000000 Cu
   0.8240320000000000    0.6445280000000000    0.4697570000000000 Cu
   0.2199539999999990    0.6250460000000000    0.3359840000000000 Se
   0.2199539999999990    0.8749540000000000    0.8359839999999999 Se
   0.7800460000000000    0.3749540000000000    0.6640159999999991 Se
   0.7800460000000000    0.1250460000000000    0.1640160000000000 Se
   0.0674710000000000    0.8015620000000000    0.2458510000000000 O
   0.0674710000000000    0.6984380000000000    0.7458509999999990 O
   0.9325289999999991    0.1984380000000000    0.7541490000000000 O
   0.9325289999999991    0.3015620000000000    0.2541490000000000 O
   0.8674320000000000    0.0956340000000000    0.0259320000000000 O
   0.8674320000000000    0.4043660000000000    0.5259320000000000 O
   0.1325680000000000    0.9043660000000000    0.9740679999999990 O
   0.1325680000000000    0.5956340000000000    0.4740680000000000 O
   0.5380980000000000    0.6924540000000000    0.4790589999999990 O
   0.5380980000000000    0.8075460000000000    0.9790589999999991 O
   0.4619020000000000    0.3075460000000000    0.5209410000000000 O
   0.4619020000000000    0.1924540000000000    0.0209409999999990 O
   0.6154450000000000    0.9733560000000000    0.3817730000000000 O
   0.6154450000000000    0.5266440000000000    0.8817729999999990 O
   0.3845550000000000    0.0266439999999990    0.6182270000000000 O
   0.3845550000000000    0.4733560000000000    0.1182270000000000 O
   0.2329969999999990    0.3718110000000000    0.1214840000000000 O
   0.2329969999999990    0.1281890000000000    0.6214839999999990 O
   0.7670030000000000    0.6281890000000000    0.8785160000000000 O
   0.7670030000000000    0.8718110000000000    0.3785159999999990 O
