Cu6 Se6
1.0
   2.0043460000000000   -3.4966420000000000    0.0000000000000000
   2.0043460000000000    3.4966420000000000    0.0000000000000000
   0.0000000000000000    0.0000000000000000   17.4349230000000013
Cu Se
6 6
direct
   0.3405100000000000    0.6594900000000000    0.1079130000000000 Cu
   0.6594900000000000    0.3405100000000000    0.8920870000000000 Cu
   0.6594900000000000    0.3405100000000000    0.6079129999999990 Cu
   0.3405100000000000    0.6594900000000000    0.3920869999999990 Cu
   0.3663990000000000    0.6336010000000000    0.7500000000000000 Cu
   0.6336010000000000    0.3663990000000000    0.2500000000000000 Cu
   0.6980149999999991    0.3019850000000000    0.7500000000000000 Se
   0.3019850000000000    0.6980149999999991    0.2500000000000000 Se
   0.9931979999999990    0.0068020000000000    0.5695720000000000 Se
   0.0068020000000000    0.9931979999999990    0.0695720000000000 Se
   0.9931979999999990    0.0068020000000000    0.9304279999999990 Se
   0.0068020000000000    0.9931979999999990    0.4304280000000000 Se
