Cu27 Se20
1.0
   3.4832850000000000    0.0000000000000000    2.0110760000000001
   1.1610950000000000    3.2840729999999998    2.0110760000000001
   0.3494690000000000    0.2471120000000000   79.8377200000000045
Cu Se
27 20
direct
   0.2460330000000000    0.2460330000000000    0.0630950000000000 Cu
   0.7545990000000000    0.7545990000000000    0.0368100000000000 Cu
   0.2445689999999990    0.2445689999999990    0.1633150000000000 Cu
   0.7445569999999990    0.7445569999999990    0.0883159999999990 Cu
   0.7551510000000000    0.7551510000000000    0.1367270000000000 Cu
   0.7442460000000000    0.7442460000000000    0.1883630000000000 Cu
   0.7418659999999990    0.7418659999999990    0.2387200000000000 Cu
   0.7498800000000001    0.7498800000000001    0.2875180000000000 Cu
   0.7495720000000000    0.7495720000000000    0.3375640000000000 Cu
   0.7494300000000000    0.7494300000000000    0.3875849999999990 Cu
   0.7495330000000000    0.7495330000000000    0.4375700000000000 Cu
   0.7495889999999999    0.7495889999999999    0.4875620000000000 Cu
   0.7493160000000000    0.7493160000000000    0.5376029999999991 Cu
   0.2460359999999990    0.2460359999999990    0.6630950000000000 Cu
   0.7497769999999990    0.7497769999999990    0.5875330000000000 Cu
   0.7630880000000000    0.7630880000000000    0.6355370000000000 Cu
   0.7441340000000000    0.7441340000000000    0.6883800000000001 Cu
   0.2455349999999990    0.2455349999999990    0.7631700000000000 Cu
   0.7546520000000000    0.7546520000000000    0.7368020000000000 Cu
   0.7438140000000000    0.7438140000000000    0.7884280000000000 Cu
   0.2539410000000000    0.2539410000000000    0.8619089999999990 Cu
   0.7543200000000001    0.7543200000000001    0.8368519999999990 Cu
   0.2499849999999990    0.2499849999999990    0.9125019999999990 Cu
   0.2436849999999990    0.2436849999999990    0.9634469999999991 Cu
   0.7581129999999990    0.7581129999999990    0.8862829999999990 Cu
   0.7493569999999991    0.7493569999999991    0.9375969999999991 Cu
   0.7352130000000000    0.7352130000000000    0.9897180000000000 Cu
   0.9976739999999999    0.9976739999999999    0.0003489999999990 Se
   0.0079790000000000    0.0079790000000000    0.0488030000000000 Se
   0.9974259999999990    0.9974259999999990    0.1003859999999990 Se
   0.0074100000000000    0.0074100000000000    0.1488880000000000 Se
   0.9942970000000000    0.9942970000000000    0.2008549999999990 Se
   0.0008300000000000    0.0008300000000000    0.2498749999999990 Se
   0.9999009999999990    0.9999009999999990    0.3000150000000000 Se
   0.0003160000000000    0.0003160000000000    0.3499529999999990 Se
   0.0005059999999990    0.0005059999999990    0.3999240000000000 Se
   0.0001760000000000    0.0001760000000000    0.4499740000000000 Se
   0.0004500000000000    0.0004500000000000    0.4999320000000000 Se
   0.0009029999999990    0.0009029999999990    0.5498649999999990 Se
   0.0051470000000000    0.0051470000000000    0.5992280000000000 Se
   0.0065870000000000    0.0065870000000000    0.6490119999999990 Se
   0.9974100000000001    0.9974100000000001    0.7003880000000000 Se
   0.0077750000000000    0.0077750000000000    0.7488340000000000 Se
   0.9970270000000000    0.9970270000000000    0.8004460000000000 Se
   0.0090680000000000    0.0090680000000000    0.8486400000000001 Se
   0.0002000000000000    0.0002000000000000    0.8999700000000000 Se
   0.9989250000000000    0.9989250000000000    0.9501609999999990 Se
