Cu8 O6
1.0
  -2.9548030000000001    2.9548030000000001    4.9183729999999999
   2.9548030000000001   -2.9548030000000001    4.9183729999999999
   2.9548030000000001    2.9548030000000001   -4.9183729999999999
Cu O
8 6
direct
   0.3750000000000000    0.6250000000000000    0.2500000000000000 Cu
   0.8750000000000000    0.6250000000000000    0.2500000000000000 Cu
   0.3750000000000000    0.1250000000000000    0.7500000000000000 Cu
   0.3750000000000000    0.6250000000000000    0.7500000000000000 Cu
   0.3750000000000000    0.1250000000000000    0.2500000000000000 Cu
   0.8750000000000000    0.1250000000000000    0.2500000000000000 Cu
   0.8750000000000000    0.6250000000000000    0.7500000000000000 Cu
   0.8750000000000000    0.1250000000000000    0.7500000000000000 Cu
   0.2500000000000000    0.7500000000000000    0.5000000000000000 O
   0.5000000000000000    0.5000000000000000    0.0000000000000000 O
   0.7629530000000000    0.7629530000000000    0.0000000000000000 O
   0.5129530000000000    0.0129530000000000    0.5000000000000000 O
   0.9870470000000000    0.4870469999999991    0.5000000000000000 O
   0.2370469999999990    0.2370469999999990    0.0000000000000000 O
