Cu29 Se19
1.0
   3.4970740000000000    0.0010230000000000    2.0185399999999998
   1.1666559999999999    3.2967320000000000    2.0185399999999998
   0.0017720000000000    0.0012530000000000   76.7016579999999948
Cu Se
29 19
direct
   0.2435689999999990    0.2435689999999990    0.0668110000000000 Cu
   0.7570690000000000    0.7570690000000000    0.0383579999999990 Cu
   0.7418709999999999    0.7418709999999999    0.0933850000000000 Cu
   0.7392019999999990    0.7392019999999990    0.1464410000000000 Cu
   0.7498170000000000    0.7498170000000000    0.1974120000000000 Cu
   0.7493679999999990    0.7493679999999990    0.2501009999999990 Cu
   0.7494759999999990    0.7494759999999990    0.3027050000000000 Cu
   0.7494390000000000    0.7494390000000000    0.3553550000000000 Cu
   0.7494320000000000    0.7494320000000000    0.4079900000000000 Cu
   0.2441539999999990    0.2441539999999990    0.4877669999999991 Cu
   0.7673869999999990    0.7673869999999990    0.4577730000000000 Cu
   0.2561230000000000    0.2561230000000000    0.5911339999999990 Cu
   0.7407670000000000    0.7407670000000000    0.5146269999999999 Cu
   0.2534010000000000    0.2534010000000000    0.6441789999999999 Cu
   0.7561869999999991    0.7561869999999991    0.5648170000000000 Cu
   0.2521410000000000    0.2521410000000000    0.6970189999999991 Cu
   0.7609650000000000    0.7609650000000000    0.6166870000000000 Cu
   0.2516270000000000    0.2516270000000000    0.7497469999999991 Cu
   0.7500110000000000    0.7500110000000000    0.6710539999999990 Cu
   0.7493810000000000    0.7493810000000000    0.7237939999999990 Cu
   0.2512700000000000    0.2512700000000000    0.8024150000000000 Cu
   0.7489230000000000    0.7489230000000000    0.7764749999999990 Cu
   0.2506549999999990    0.2506549999999990    0.8551519999999990 Cu
   0.7485740000000000    0.7485740000000000    0.8291809999999999 Cu
   0.2484710000000000    0.2484710000000000    0.9081490000000000 Cu
   0.7480089999999990    0.7480089999999990    0.8819020000000000 Cu
   0.2413500000000000    0.2413500000000000    0.9618890000000000 Cu
   0.7470979999999990    0.7470979999999990    0.9346559999999990 Cu
   0.7286800000000001    0.7286800000000001    0.9902110000000000 Cu
   0.9986630000000000    0.9986630000000000    0.0002189999999990 Se
   0.0091630000000000    0.0091630000000000    0.0512300000000000 Se
   0.9935640000000000    0.9935640000000000    0.1062419999999990 Se
   0.9999900000000000    0.9999900000000000    0.1578890000000000 Se
   0.9993839999999991    0.9993839999999991    0.2106630000000000 Se
   0.0003540000000000    0.0003540000000000    0.2630790000000000 Se
   0.0009360000000000    0.0009360000000000    0.3156219999999990 Se
   0.0054870000000000    0.0054870000000000    0.4201820000000000 Se
   0.0013900000000000    0.0013900000000000    0.3682290000000000 Se
   0.9975839999999990    0.9975839999999990    0.5267149999999990 Se
   0.0094180000000000    0.0094180000000000    0.4721809999999990 Se
   0.0106690000000000    0.0106690000000000    0.5772729999999990 Se
   0.9970620000000000    0.9970620000000000    0.6319990000000000 Se
   0.9978100000000001    0.9978100000000001    0.6845629999999990 Se
   0.9997020000000000    0.9997020000000000    0.7894840000000000 Se
   0.9989190000000000    0.9989190000000000    0.7370369999999991 Se
   0.0014249999999990    0.0014249999999990    0.8419010000000000 Se
   0.0028859999999990    0.0028859999999990    0.8943200000000001 Se
   0.0011780000000000    0.0011780000000000    0.9471449999999991 Se
