Cu2 Se2 O8
1.0
  -2.7887550000000001   -4.0624229999999999    0.0000000000000000
  -2.7887550000000001    4.0624229999999999    0.0000000000000000
   0.0000000000000000    0.0000000000000000   -6.6753280000000004
Cu Se O
2 2 8
direct
   0.0000000000000000    0.0000000000000000    0.0000000000000000 Cu
   0.0000000000000000    0.0000000000000000    0.5000000000000000 Cu
   0.6519300000000000    0.3480700000000000    0.7500000000000000 Se
   0.3480700000000000    0.6519300000000000    0.2500000000000000 Se
   0.7614280000000000    0.2385719999999990    0.5377609999999990 O
   0.2385719999999990    0.7614280000000000    0.4622389999999990 O
   0.7192029999999990    0.7768609999999990    0.2500000000000000 O
   0.2807969999999990    0.2231389999999990    0.7500000000000000 O
   0.7614280000000000    0.2385719999999990    0.9622390000000000 O
   0.2385719999999990    0.7614280000000000    0.0377609999999990 O
   0.2231389999999990    0.2807969999999990    0.2500000000000000 O
   0.7768609999999990    0.7192029999999990    0.7500000000000000 O
