Cu6 Se6 O18
1.0
   4.8131370000000002    0.0000000000000000    0.0000000000000000
  -0.0402350000000000    8.9261169999999996    0.0000000000000000
  -0.2226870000000000   -4.2864050000000002    9.8403679999999998
Cu Se O
6 6 18
direct
   0.4688360000000000    0.9920209999999990    0.7434649999999990 Cu
   0.0306539999999990    0.6460700000000000    0.6650159999999991 Cu
   0.0000000000000000    0.0000000000000000    0.0000000000000000 Cu
   0.5311640000000000    0.0079790000000000    0.2565350000000000 Cu
   0.0000000000000000    0.0000000000000000    0.5000000000000000 Cu
   0.9693459999999990    0.3539300000000000    0.3349840000000000 Cu
   0.5782430000000000    0.6968200000000001    0.8787830000000000 Se
   0.5477620000000000    0.7265320000000000    0.4787949999999990 Se
   0.4217570000000000    0.3031800000000000    0.1212169999999990 Se
   0.9821850000000000    0.2460260000000000    0.8293130000000000 Se
   0.4522380000000000    0.2734680000000000    0.5212050000000000 Se
   0.0178149999999990    0.7539739999999990    0.1706870000000000 Se
   0.1231790000000000    0.0744420000000000    0.8531040000000000 O
   0.7005589999999990    0.9233030000000000    0.5783100000000001 O
   0.7231329999999990    0.5571800000000000    0.7322259999999990 O
   0.3673030000000000    0.7880880000000000    0.1700960000000000 O
   0.9375209999999990    0.8037369999999990    0.3390400000000000 O
   0.3104540000000000    0.7768200000000001    0.6170430000000000 O
   0.6326970000000000    0.2119120000000000    0.8299040000000000 O
   0.2276969999999990    0.6914460000000000    0.8388589999999990 O
   0.2994410000000000    0.0766970000000000    0.4216900000000000 O
   0.6909390000000000    0.8839700000000000    0.8756069999999990 O
   0.7917770000000000    0.6007060000000000    0.5002909999999990 O
   0.2082230000000000    0.3992940000000000    0.4997089999999990 O
   0.7723030000000000    0.3085540000000000    0.1611410000000000 O
   0.3090610000000000    0.1160300000000000    0.1243929999999990 O
   0.6895460000000000    0.2231800000000000    0.3829570000000000 O
   0.8768210000000000    0.9255580000000000    0.1468960000000000 O
   0.2768670000000000    0.4428200000000000    0.2677740000000000 O
   0.0624790000000000    0.1962630000000000    0.6609600000000001 O
